28

H     0.0000    0.0000  -13.5000
H     0.0000    0.0000  -12.5000
H     0.0000    0.0000  -11.5000
H     0.0000    0.0000  -10.5000
H     0.0000    0.0000   -9.5000
H     0.0000    0.0000   -8.5000
H     0.0000    0.0000   -7.5000
H     0.0000    0.0000   -6.5000
H     0.0000    0.0000   -5.5000
H     0.0000    0.0000   -4.5000
H     0.0000    0.0000   -3.5000
H     0.0000    0.0000   -2.5000
H     0.0000    0.0000   -1.5000
H     0.0000    0.0000   -0.5000
H     0.0000    0.0000    0.5000
H     0.0000    0.0000    1.5000
H     0.0000    0.0000    2.5000
H     0.0000    0.0000    3.5000
H     0.0000    0.0000    4.5000
H     0.0000    0.0000    5.5000
H     0.0000    0.0000    6.5000
H     0.0000    0.0000    7.5000
H     0.0000    0.0000    8.5000
H     0.0000    0.0000    9.5000
H     0.0000    0.0000   10.5000
H     0.0000    0.0000   11.5000
H     0.0000    0.0000   12.5000
H     0.0000    0.0000   13.5000
