56

H     0.0000    0.0000  -27.5000
H     0.0000    0.0000  -26.5000
H     0.0000    0.0000  -25.5000
H     0.0000    0.0000  -24.5000
H     0.0000    0.0000  -23.5000
H     0.0000    0.0000  -22.5000
H     0.0000    0.0000  -21.5000
H     0.0000    0.0000  -20.5000
H     0.0000    0.0000  -19.5000
H     0.0000    0.0000  -18.5000
H     0.0000    0.0000  -17.5000
H     0.0000    0.0000  -16.5000
H     0.0000    0.0000  -15.5000
H     0.0000    0.0000  -14.5000
H     0.0000    0.0000  -13.5000
H     0.0000    0.0000  -12.5000
H     0.0000    0.0000  -11.5000
H     0.0000    0.0000  -10.5000
H     0.0000    0.0000   -9.5000
H     0.0000    0.0000   -8.5000
H     0.0000    0.0000   -7.5000
H     0.0000    0.0000   -6.5000
H     0.0000    0.0000   -5.5000
H     0.0000    0.0000   -4.5000
H     0.0000    0.0000   -3.5000
H     0.0000    0.0000   -2.5000
H     0.0000    0.0000   -1.5000
H     0.0000    0.0000   -0.5000
H     0.0000    0.0000    0.5000
H     0.0000    0.0000    1.5000
H     0.0000    0.0000    2.5000
H     0.0000    0.0000    3.5000
H     0.0000    0.0000    4.5000
H     0.0000    0.0000    5.5000
H     0.0000    0.0000    6.5000
H     0.0000    0.0000    7.5000
H     0.0000    0.0000    8.5000
H     0.0000    0.0000    9.5000
H     0.0000    0.0000   10.5000
H     0.0000    0.0000   11.5000
H     0.0000    0.0000   12.5000
H     0.0000    0.0000   13.5000
H     0.0000    0.0000   14.5000
H     0.0000    0.0000   15.5000
H     0.0000    0.0000   16.5000
H     0.0000    0.0000   17.5000
H     0.0000    0.0000   18.5000
H     0.0000    0.0000   19.5000
H     0.0000    0.0000   20.5000
H     0.0000    0.0000   21.5000
H     0.0000    0.0000   22.5000
H     0.0000    0.0000   23.5000
H     0.0000    0.0000   24.5000
H     0.0000    0.0000   25.5000
H     0.0000    0.0000   26.5000
H     0.0000    0.0000   27.5000
